(set-logic BV) (define-fun origCir ((n162 Bool) (n166 Bool) (n267 Bool) (n263 Bool) (n364 Bool) (n324 Bool)) Bool (and (and (xor n364 (not n324)) (xor (and (xor n267 n263) (xor n166 n162)) (not (and (not n364) (not n324))))) (xor (and (not (xor (and (xor n267 n263) (xor n166 n162)) (not (and (not n364) (not n324))))) (and (not n364) (not n324))) (not (and (not n364) (not n324)))))) (synth-fun skel ((n162 Bool) (n166 Bool) (n267 Bool) (n263 Bool) (n364 Bool) (n324 Bool)) Bool) (declare-var n162 Bool) (declare-var n166 Bool) (declare-var n267 Bool) (declare-var n263 Bool) (declare-var n364 Bool) (declare-var n324 Bool) (constraint (= (origCir n162 n166 n267 n263 n364 n324) (skel n162 n166 n267 n263 n364 n324))) (check-synth)
